1941.59
0 46 53 50 21 0
0 39 31 66 34 0
0 43 41 17 10 52 0
0 28 33 25 4 0
0 16 56 47 74 2 0
0 30 60 42 1 73 63 49 3 0
0 36 57 54 14 38 0
0 37 71 40 9 72 8 0
0 29 64 24 51 12 0
0 23 62 26 59 75 68 0
0 48 70 19 7 44 6 0
0 11 65 58 32 0
0 22 61 69 5 15 13 45 0
0 18 55 27 20 35 67 0
